164	32	4	138	
10	10	10	10

0	0	0	0	0	0	3	1	9	30
1	0	1	1	1	8	1	2
2	1	0	3	2	3	1	3
3	4	5	0	6	8	2	14	4
4	6	3	2	0	2	1	5
5	5	5	4	0	5	1	6
6	6	4	0	5	9	1	7
7	5	5	3	0	7	1	8
8	0	5	4	4	2	1	10
9	4	0	4	5	7	1	10
10	3	0	10	3	1	1	11
11	5	3	2	0	5	1	12
12	2	3	0	2	6	1	13
13	0	4	3	6	1	1	15
14	2	6	2	0	4	1	15
15	4	5	5	0	10	1	16
16	0	4	3	6	4	1	17
17	2	4	0	2	6	2	29	18
18	3	0	2	4	6	1	19
19	0	4	6	4	3	2	28	20
20	3	0	3	3	8	1	21
21	4	0	5	8	5	1	22
22	5	6	0	2	6	2	27	23
23	0	2	5	4	9	1	24
24	0	3	5	5	6	1	25
25	0	6	7	4	5	1	26
26	0	2	5	3	9	1	31
27	7	0	6	5	4	1	31
28	5	4	3	0	6	1	31
29	3	5	3	0	6	1	31
30	5	3	0	4	3	1	31
31	0	0	0	0	0	0
